1 -1 2 0
1 -3 -4 0
1 5 6 0
1 -4 -7 0
1 -4 8 0
1 9 10 0
1 11 -12 0
1 -13 -14 0
1 -15 -16 0
1 -15 17 0
1 -18 13 0
1 -19 20 0
1 -21 3 0
1 22 -23 0
1 -24 -16 0
1 24 25 0
1 -16 -15 0
1 25 26 0
1 -27 -28 0
1 27 29 0
1 -30 31 0
1 28 32 0
1 29 -33 0
1 -31 34 0
1 -35 36 0
1 -37 -9 0
1 -37 29 0
1 -38 -9 0
1 38 -29 0
1 14 39 0
1 -40 15 0
1 40 -41 0
1 -42 -10 0
1 -42 43 0
1 -39 44 0
1 -45 46 0
1 45 -30 0
1 10 -12 0
1 -10 9 0
1 -12 -21 0
1 -47 -48 0
1 -47 -49 0
1 -48 -50 0
1 51 52 0
1 51 47 0
1 41 -48 0
1 -41 -10 0
1 53 -54 0
1 -53 -55 0
1 -53 47 0
1 -56 -50 0
1 -52 7 0
1 57 -58 0
1 -6 26 0
1 -59 -60 0
1 59 -61 0
1 -62 7 0
1 62 -25 0
1 -62 -63 0
1 -64 65 0
1 64 -66 0
1 -67 -68 0
1 67 -69 0
1 -67 26 0
1 -67 57 0
1 -20 70 0
1 -20 26 0
1 20 -64 0
1 58 70 0
1 58 64 0
1 -58 -57 0
1 -69 -71 0
1 72 -73 0
1 74 71 0
1 71 -64 0
1 -75 -76 0
1 75 -77 0
1 75 25 0
1 65 -68 0
1 -65 78 0
1 65 79 0
1 80 81 0
1 82 -83 0
1 82 34 0
1 -84 85 0
1 -86 -87 0
1 -86 -88 0
1 -89 90 0
1 -89 88 0
1 -88 -91 0
1 -81 -36 0
1 81 82 0
1 -92 -93 0
1 32 94 0
1 32 -29 0
1 -46 -94 0
1 46 -47 0
1 -95 39 0
1 -95 -96 0
1 -90 -95 0
1 90 -97 0
1 -98 -99 0
1 100 -101 0
1 -44 54 0
1 -44 -45 0
1 54 102 0
1 -54 42 0
1 -103 -102 0
1 -103 -52 0
1 97 -90 0
1 104 -54 0
1 -102 54 0
1 105 44 0
1 -105 -106 0
1 55 -51 0
1 55 59 0
1 -63 -51 0
1 -63 -43 0
1 107 108 0
1 -109 110 0
1 -111 43 0
1 111 -112 0
1 113 114 0
1 -113 109 0
1 115 113 0
1 -115 103 0
1 -115 109 0
1 112 -116 0
1 -112 70 0
1 112 117 0
1 -112 118 0
1 -119 -120 0
1 -119 121 0
1 -119 122 0
1 68 -73 0
1 -68 67 0
1 77 -119 0
1 118 -79 0
1 -118 6 0
1 -116 -123 0
1 -116 -76 0
1 -116 124 0
1 -117 59 0
1 125 -68 0
1 125 -121 0
1 -125 77 0
1 -79 126 0
1 -127 116 0
1 127 128 0
1 -129 -116 0
1 129 -126 0
1 -129 -130 0
1 -131 132 0
1 131 67 0
1 -133 -134 0
1 126 -132 0
1 -135 128 0
1 -136 135 0
1 137 -128 0
1 137 -138 0
1 -137 139 0
1 -137 140 0
1 -138 134 0
1 141 -138 0
1 -141 -142 0
1 142 66 0
1 -142 -138 0
1 128 -138 0
1 -128 143 0
1 -144 145 0
1 -144 -146 0
1 147 -148 0
1 147 149 0
1 -147 145 0
1 150 -151 0
1 152 85 0
1 148 145 0
1 -87 -153 0
1 -87 -154 0
1 -85 -150 0
1 -155 -156 0
1 -155 -89 0
1 157 -155 0
1 149 158 0
1 -149 -159 0
1 -149 -144 0
1 160 144 0
1 161 84 0
1 -161 32 0
1 161 154 0
1 162 -156 0
1 162 33 0
1 -162 153 0
1 163 81 0
1 164 -91 0
1 -165 -156 0
1 -165 -161 0
1 156 -166 0
1 -91 -164 0
1 91 -100 0
1 -91 167 0
1 91 -81 0
1 99 -158 0
1 99 168 0
1 -99 -98 0
1 101 169 0
1 169 93 0
1 -170 -99 0
1 170 -101 0
1 171 -172 0
1 171 169 0
1 -168 84 0
1 -168 -173 0
1 -174 -90 0
1 174 106 0
1 175 105 0
1 -176 177 0
1 176 -170 0
1 178 -179 0
1 -178 96 0
1 -180 181 0
1 180 -173 0
1 180 106 0
1 93 173 0
1 182 -102 0
1 114 182 0
1 -114 183 0
1 -184 115 0
1 185 -186 0
1 -185 -187 0
1 -188 -189 0
1 -188 -175 0
1 -188 -183 0
1 -183 -189 0
1 183 190 0
1 -183 -181 0
1 -183 -176 0
1 -191 192 0
1 -193 194 0
1 -195 196 0
1 197 -198 0
1 199 193 0
1 194 200 0
1 -194 102 0
1 194 -201 0
1 -202 -200 0
1 -202 -203 0
1 -202 -204 0
1 -205 206 0
1 205 111 0
1 -205 -121 0
1 -196 -134 0
1 207 208 0
1 -209 121 0
1 209 195 0
1 210 -126 0
1 -210 205 0
1 -140 126 0
1 140 137 0
1 -140 211 0
1 134 205 0
1 -134 -212 0
1 134 -213 0
1 -212 -214 0
1 -212 -140 0
1 -211 -215 0
1 211 143 0
1 -211 210 0
1 216 -134 0
1 -216 -217 0
1 216 -218 0
1 216 215 0
1 -216 140 0
1 -216 -210 0
1 -143 -139 0
1 -219 -220 0
1 219 211 0
1 -221 128 0
1 -213 -222 0
1 213 118 0
1 -213 223 0
1 -124 134 0
1 124 213 0
1 -224 132 0
1 224 140 0
1 225 -214 0
1 225 221 0
1 -225 143 0
1 -223 215 0
1 226 -128 0
1 -226 -227 0
1 -228 -229 0
1 -228 -230 0
1 -222 -124 0
1 -222 229 0
1 227 228 0
1 -220 -231 0
1 232 -126 0
1 -232 -231 0
1 -233 -229 0
1 234 229 0
1 235 -236 0
1 237 -238 0
1 -230 -139 0
1 -230 239 0
1 230 240 0
1 230 235 0
1 -236 239 0
1 -236 230 0
1 -241 242 0
1 -243 244 0
1 243 245 0
1 -243 -246 0
1 245 243 0
1 -245 -247 0
1 -248 241 0
1 -248 249 0
1 250 251 0
1 -250 -252 0
1 -246 243 0
1 246 -242 0
1 246 -87 0
1 -253 -148 0
1 -253 -251 0
1 253 -245 0
1 -254 245 0
1 -247 -255 0
1 -242 -256 0
1 257 256 0
1 -257 -246 0
1 -258 -259 0
1 258 253 0
1 -258 -241 0
1 255 -253 0
1 260 261 0
1 262 263 0
1 263 264 0
1 -263 -265 0
1 263 166 0
1 263 266 0
1 -267 -149 0
1 267 165 0
1 -158 262 0
1 158 -267 0
1 -166 -264 0
1 -166 268 0
1 -166 -165 0
1 264 262 0
1 264 261 0
1 -264 -269 0
1 270 271 0
1 270 -272 0
1 -270 273 0
1 -261 158 0
1 261 -274 0
1 261 271 0
1 275 -276 0
1 -277 167 0
1 278 279 0
1 278 -280 0
1 -271 -281 0
1 271 -273 0
1 273 -282 0
1 -268 -273 0
1 279 -273 0
1 -279 157 0
1 283 -284 0
1 283 271 0
1 269 -271 0
1 -269 285 0
1 286 168 0
1 286 -282 0
1 -286 173 0
1 -173 -168 0
1 -173 -268 0
1 -287 -288 0
1 -288 -281 0
1 -288 -287 0
1 -288 -289 0
1 -288 290 0
1 282 179 0
1 282 288 0
1 -291 -292 0
1 291 288 0
1 289 -293 0
1 -281 -294 0
1 281 287 0
1 -281 286 0
1 -281 -285 0
1 281 273 0
1 -179 191 0
1 179 295 0
1 179 296 0
1 297 -193 0
1 -297 -291 0
1 297 298 0
1 -297 -299 0
1 300 -301 0
1 296 -186 0
1 -296 -288 0
1 -298 -295 0
1 295 168 0
1 295 302 0
1 -203 177 0
1 203 -303 0
1 -203 -183 0
1 -203 -304 0
1 186 -293 0
1 -200 -305 0
1 305 306 0
1 299 186 0
1 299 307 0
1 -299 -308 0
1 -304 -200 0
1 -304 -309 0
1 204 -209 0
1 -307 -303 0
1 -310 311 0
1 -311 305 0
1 -187 311 0
1 187 185 0
1 190 312 0
1 -190 313 0
1 -314 311 0
1 -314 216 0
1 -314 196 0
1 -206 -196 0
1 -206 132 0
1 -206 309 0
1 206 -216 0
1 315 -316 0
1 315 187 0
1 -315 317 0
1 -198 -318 0
1 198 -317 0
1 317 -206 0
1 -201 319 0
1 201 314 0
1 -320 -319 0
1 -215 321 0
1 215 322 0
1 -215 -323 0
1 -214 -324 0
1 -325 -316 0
1 325 -326 0
1 325 317 0
1 -324 205 0
1 327 -328 0
1 -316 329 0
1 -316 -215 0
1 -322 -318 0
1 -322 329 0
1 -330 -224 0
1 -331 329 0
1 332 333 0
1 333 -325 0
1 333 334 0
1 -335 -332 0
1 336 337 0
1 338 337 0
1 -339 -224 0
1 340 236 0
1 -341 -342 0
1 341 340 0
1 341 -343 0
1 341 -344 0
1 345 343 0
1 -346 -347 0
1 -348 349 0
1 -350 349 0
1 347 -351 0
1 -347 346 0
1 347 -344 0
1 352 -353 0
1 352 -346 0
1 -352 354 0
1 352 -344 0
1 -355 -356 0
1 -357 -358 0
1 359 -360 0
1 -361 -362 0
1 -360 361 0
1 358 357 0
1 358 363 0
1 364 359 0
1 356 365 0
1 -356 361 0
1 -356 366 0
1 367 368 0
1 367 -248 0
1 -251 369 0
1 363 -358 0
1 363 -370 0
1 363 254 0
1 -371 -370 0
1 -371 372 0
1 -362 373 0
1 368 -371 0
1 -368 361 0
1 374 -375 0
1 374 361 0
1 -376 368 0
1 -376 377 0
1 376 -255 0
1 -377 365 0
1 378 -370 0
1 378 379 0
1 378 380 0
1 381 -249 0
1 382 -376 0
1 -383 -384 0
1 380 370 0
1 -370 -384 0
1 370 -385 0
1 -370 -381 0
1 370 -386 0
1 -370 387 0
1 -388 -389 0
1 388 -390 0
1 388 -255 0
1 391 -392 0
1 -391 257 0
1 393 394 0
1 -389 395 0
1 -389 -391 0
1 389 396 0
1 397 -398 0
1 -249 -394 0
1 -249 399 0
1 400 401 0
1 -400 -266 0
1 266 -389 0
1 -266 402 0
1 -266 -400 0
1 -401 -394 0
1 401 -272 0
1 -259 -396 0
1 259 393 0
1 259 399 0
1 -403 -404 0
1 403 405 0
1 403 -393 0
1 -403 -406 0
1 274 -270 0
1 -274 -269 0
1 -272 402 0
1 -272 401 0
1 -272 -261 0
1 284 276 0
1 -284 407 0
1 -284 408 0
1 -290 409 0
1 410 411 0
1 -265 290 0
1 -265 -406 0
1 412 -413 0
1 412 -404 0
1 412 -414 0
1 412 406 0
1 -285 -279 0
1 -285 281 0
1 -285 -410 0
1 285 269 0
1 -411 -410 0
1 301 -409 0
1 -415 -285 0
1 276 284 0
1 409 -416 0
1 292 -289 0
1 293 417 0
1 -293 408 0
1 -306 305 0
1 418 419 0
1 417 -411 0
1 -417 -302 0
1 -420 -421 0
1 -302 -418 0
1 302 422 0
1 423 -294 0
1 -423 422 0
1 -424 425 0
1 424 -304 0
1 425 302 0
1 -422 306 0
1 422 -419 0
1 309 426 0
1 427 -315 0
1 -428 -312 0
1 -428 429 0
1 428 -296 0
1 429 -430 0
1 -426 -298 0
1 426 -309 0
1 426 431 0
1 426 432 0
1 426 433 0
1 434 -313 0
1 321 -311 0
1 -321 -429 0
1 -435 -311 0
1 430 -436 0
1 -319 -436 0
1 319 430 0
1 319 437 0
1 308 -319 0
1 308 312 0
1 308 -438 0
1 -308 -430 0
1 308 427 0
1 -308 -299 0
1 -439 -430 0
1 -440 441 0
1 442 -198 0
1 -442 443 0
1 -442 444 0
1 -318 -198 0
1 318 316 0
1 -318 442 0
1 318 322 0
1 445 -446 0
1 -447 -448 0
1 444 -318 0
1 -436 -449 0
1 450 451 0
1 -450 -190 0
1 -450 452 0
1 -453 454 0
1 -448 -447 0
1 -454 198 0
1 -454 329 0
1 455 453 0
1 455 -329 0
1 -456 -457 0
1 456 -458 0
1 456 -459 0
1 -456 -460 0
1 461 456 0
1 462 -463 0
1 -462 -335 0
1 -464 -465 0
1 466 467 0
1 466 339 0
1 466 344 0
1 -466 -328 0
1 468 -469 0
1 -468 -470 0
1 468 -324 0
1 -468 -466 0
1 471 453 0
1 -471 472 0
1 470 345 0
1 -473 468 0
1 474 475 0
1 -474 476 0
1 474 -465 0
1 -334 474 0
1 -334 -473 0
1 -465 -477 0
1 465 478 0
1 343 -479 0
1 480 334 0
1 -481 352 0
1 -476 469 0
1 475 -469 0
1 482 -483 0
1 -482 484 0
1 485 -476 0
1 -485 486 0
1 -354 349 0
1 -487 -488 0
1 489 354 0
1 -489 490 0
1 488 480 0
1 491 -345 0
1 492 493 0
1 492 479 0
1 -492 487 0
1 494 495 0
1 496 -497 0
1 497 488 0
1 498 487 0
1 -499 -487 0
1 -499 -500 0
1 501 -502 0
1 -501 503 0
1 -504 501 0
1 -504 -357 0
1 -505 506 0
1 505 -507 0
1 505 508 0
1 509 -505 0
1 -509 510 0
1 509 -508 0
1 -507 511 0
1 -508 509 0
1 503 512 0
1 503 -513 0
1 514 -503 0
1 -366 515 0
1 -366 364 0
1 366 -516 0
1 372 371 0
1 517 505 0
1 517 518 0
1 517 -519 0
1 -516 -518 0
1 -516 -520 0
1 519 -374 0
1 -519 521 0
1 519 369 0
1 -365 358 0
1 365 -522 0
1 -523 -374 0
1 -521 -519 0
1 522 524 0
1 -525 362 0
1 -373 526 0
1 -373 -527 0
1 373 369 0
1 -387 528 0
1 -387 -380 0
1 385 -529 0
1 -528 530 0
1 528 -523 0
1 528 531 0
1 527 532 0
1 533 534 0
1 535 536 0
1 -384 -375 0
1 536 -537 0
1 536 387 0
1 538 -385 0
1 375 -384 0
1 -539 259 0
1 539 -386 0
1 539 -274 0
1 399 -403 0
1 405 -540 0
1 405 -541 0
1 542 543 0
1 -544 -545 0
1 541 546 0
1 -386 -547 0
1 404 -540 0
1 -404 403 0
1 414 -544 0
1 414 -407 0
1 414 285 0
1 548 -544 0
1 548 -407 0
1 549 -544 0
1 -395 -413 0
1 395 -550 0
1 395 549 0
1 540 551 0
1 540 -552 0
1 413 412 0
1 -413 398 0
1 -553 413 0
1 554 -409 0
1 550 -395 0
1 -555 402 0
1 -555 -421 0
1 555 -553 0
1 -556 421 0
1 556 -401 0
1 -556 -557 0
1 -558 -549 0
1 -416 415 0
1 559 555 0
1 559 560 0
1 -559 -561 0
1 -562 563 0
1 562 564 0
1 562 560 0
1 564 416 0
1 564 -421 0
1 -560 -565 0
1 563 416 0
1 -563 -550 0
1 566 416 0
1 419 294 0
1 419 -564 0
1 567 -568 0
1 -567 -560 0
1 -567 -569 0
1 -570 -571 0
1 -570 572 0
1 570 -573 0
1 570 -574 0
1 572 -571 0
1 -572 312 0
1 572 -574 0
1 575 576 0
1 568 576 0
1 568 -419 0
1 -568 559 0
1 561 -572 0
1 -561 577 0
1 433 -573 0
1 578 -574 0
1 -578 433 0
1 579 430 0
1 579 580 0
1 -581 582 0
1 581 583 0
1 -581 -580 0
1 582 -570 0
1 432 571 0
1 -432 434 0
1 -432 437 0
1 -584 571 0
1 584 585 0
1 584 -586 0
1 -584 -587 0
1 -446 -571 0
1 -446 -440 0
1 446 574 0
1 446 -580 0
1 -446 431 0
1 -580 -579 0
1 -586 580 0
1 583 588 0
1 -583 -589 0
1 585 590 0
1 585 -432 0
1 -438 580 0
1 -441 -436 0
1 -449 436 0
1 449 -591 0
1 449 -592 0
1 -593 -594 0
1 -593 438 0
1 431 -595 0
1 -431 451 0
1 431 -449 0
1 -596 -597 0
1 -463 -461 0
1 452 436 0
1 -452 463 0
1 -452 -450 0
1 598 -597 0
1 598 591 0
1 -459 599 0
1 -600 -601 0
1 600 598 0
1 -600 472 0
1 600 459 0
1 602 -459 0
1 -591 -603 0
1 604 -599 0
1 -605 600 0
1 -605 469 0
1 -605 606 0
1 -472 -474 0
1 -599 607 0
1 608 -599 0
1 -609 -610 0
1 611 -601 0
1 611 -457 0
1 611 612 0
1 607 -613 0
1 -614 -457 0
1 614 477 0
1 -614 606 0
1 614 -615 0
1 612 -605 0
1 612 616 0
1 612 617 0
1 616 614 0
1 457 -618 0
1 606 619 0
1 606 -620 0
1 484 482 0
1 -484 -621 0
1 -484 -615 0
1 622 -623 0
1 624 625 0
1 615 626 0
1 -615 -627 0
1 613 628 0
1 -629 -476 0
1 -630 492 0
1 627 -492 0
1 -627 -623 0
1 -631 632 0
1 633 634 0
1 633 635 0
1 632 -493 0
1 -632 627 0
1 -623 -636 0
1 478 637 0
1 -478 631 0
1 -493 -498 0
1 -638 634 0
1 638 483 0
1 -638 633 0
1 -634 -639 0
1 -634 -633 0
1 634 640 0
1 641 -631 0
1 642 -643 0
1 -483 634 0
1 -483 -482 0
1 483 -627 0
1 -644 645 0
1 646 647 0
1 648 -647 0
1 648 -649 0
1 648 -650 0
1 651 652 0
1 651 640 0
1 -653 654 0
1 -653 -648 0
1 -647 653 0
1 655 656 0
1 -655 657 0
1 -658 -649 0
1 659 653 0
1 -659 654 0
1 -660 651 0
1 -661 -662 0
1 661 -654 0
1 -652 -654 0
1 502 -663 0
1 664 663 0
1 664 -665 0
1 -506 -665 0
1 665 -666 0
1 -666 665 0
1 -667 664 0
1 668 669 0
1 -670 -671 0
1 512 666 0
1 -512 669 0
1 672 -673 0
1 671 512 0
1 669 -513 0
1 -673 672 0
1 -673 -674 0
1 673 508 0
1 -511 514 0
1 -675 -676 0
1 675 677 0
1 -678 675 0
1 678 -672 0
1 679 -518 0
1 -680 -681 0
1 -674 -682 0
1 674 -683 0
1 518 -684 0
1 685 679 0
1 -685 -676 0
1 686 687 0
1 -686 677 0
1 -676 -534 0
1 676 688 0
1 -677 -689 0
1 -677 -678 0
1 677 690 0
1 -691 -692 0
1 -687 -693 0
1 -694 -522 0
1 -689 384 0
1 -689 677 0
1 534 530 0
1 695 696 0
1 695 526 0
1 697 698 0
1 -697 699 0
1 700 689 0
1 700 -692 0
1 701 -702 0
1 701 534 0
1 -701 703 0
1 520 516 0
1 520 692 0
1 520 -704 0
1 698 -700 0
1 531 375 0
1 -531 697 0
1 531 705 0
1 531 688 0
1 -706 700 0
1 706 524 0
1 -705 534 0
1 -705 -707 0
1 -708 709 0
1 524 -703 0
1 537 538 0
1 -710 696 0
1 710 -386 0
1 -710 541 0
1 711 712 0
1 -713 714 0
1 -713 710 0
1 715 711 0
1 -715 -716 0
1 -717 -546 0
1 717 -718 0
1 552 -551 0
1 547 -544 0
1 -547 -553 0
1 719 551 0
1 -720 -713 0
1 720 -721 0
1 720 -722 0
1 -723 -724 0
1 723 -547 0
1 -725 -726 0
1 712 727 0
1 728 729 0
1 728 559 0
1 729 730 0
1 731 -555 0
1 -732 558 0
1 733 734 0
1 -733 735 0
1 733 736 0
1 735 -545 0
1 -735 -736 0
1 735 733 0
1 737 738 0
1 737 577 0
1 736 -733 0
1 -734 -732 0
1 -739 735 0
1 739 -733 0
1 577 -563 0
1 -577 -740 0
1 -741 -568 0
1 742 -743 0
1 -744 737 0
1 -740 745 0
1 -557 -741 0
1 746 -747 0
1 -746 -741 0
1 -746 733 0
1 576 740 0
1 -587 748 0
1 587 -749 0
1 -750 582 0
1 -750 -557 0
1 750 -751 0
1 750 752 0
1 -743 753 0
1 -743 754 0
1 -565 750 0
1 755 744 0
1 755 587 0
1 755 745 0
1 -751 756 0
1 -751 -742 0
1 -754 -582 0
1 589 -752 0
1 753 -749 0
1 -588 -743 0
1 -588 753 0
1 588 -757 0
1 758 -589 0
1 749 597 0
1 -752 -748 0
1 -752 -759 0
1 -752 -588 0
1 -760 749 0
1 -761 762 0
1 -761 -452 0
1 761 749 0
1 -597 598 0
1 597 596 0
1 763 597 0
1 763 -603 0
1 -763 761 0
1 757 -764 0
1 757 765 0
1 764 -766 0
1 764 -765 0
1 595 762 0
1 -595 604 0
1 603 -762 0
1 603 767 0
1 -768 -762 0
1 -768 -594 0
1 -768 -602 0
1 -769 591 0
1 770 597 0
1 771 -601 0
1 772 -609 0
1 772 773 0
1 772 -774 0
1 -594 -620 0
1 -594 775 0
1 776 -772 0
1 -776 -431 0
1 777 -772 0
1 777 778 0
1 779 -780 0
1 779 781 0
1 620 -457 0
1 -620 782 0
1 -620 -779 0
1 -620 780 0
1 -783 594 0
1 -783 -782 0
1 -783 784 0
1 773 -600 0
1 773 -619 0
1 773 628 0
1 782 -785 0
1 780 -772 0
1 -780 -786 0
1 780 787 0
1 787 785 0
1 787 783 0
1 617 -788 0
1 -617 606 0
1 -618 -612 0
1 628 -789 0
1 -790 791 0
1 788 -626 0
1 -792 619 0
1 -792 608 0
1 -793 -784 0
1 -784 -790 0
1 626 -791 0
1 794 788 0
1 791 -612 0
1 795 796 0
1 797 639 0
1 789 798 0
1 799 -633 0
1 637 483 0
1 -650 -643 0
1 800 -801 0
1 -802 639 0
1 -802 798 0
1 -803 -650 0
1 -804 642 0
1 804 -805 0
1 -657 -655 0
1 -806 -807 0
1 -635 -633 0
1 635 -808 0
1 -809 -650 0
1 -809 -808 0
1 -809 -810 0
1 809 811 0
1 809 806 0
1 -636 -643 0
1 -805 812 0
1 -656 813 0
1 -656 814 0
1 656 635 0
1 -811 -815 0
1 -811 -635 0
1 816 635 0
1 816 817 0
1 -810 -809 0
1 810 -815 0
1 -815 662 0
1 -818 813 0
1 818 -819 0
1 813 -808 0
1 -662 -820 0
1 821 -822 0
1 -821 -820 0
1 -823 822 0
1 823 824 0
1 -825 822 0
1 -825 -826 0
1 827 -821 0
1 820 -823 0
1 -820 825 0
1 -822 -823 0
1 828 -829 0
1 -830 -831 0
1 831 832 0
1 824 649 0
1 833 -823 0
1 -833 -825 0
1 -683 674 0
1 -681 -692 0
1 834 835 0
1 836 834 0
1 837 683 0
1 -838 -839 0
1 693 674 0
1 -840 -689 0
1 -840 841 0
1 -840 687 0
1 -840 834 0
1 -835 687 0
1 -842 -843 0
1 842 844 0
1 842 -834 0
1 845 702 0
1 -845 -693 0
1 844 704 0
1 846 671 0
1 -690 844 0
1 -688 843 0
1 -688 690 0
1 -702 -847 0
1 -704 844 0
1 704 847 0
1 -704 520 0
1 -848 849 0
1 848 -850 0
1 851 -708 0
1 -703 -701 0
1 -852 -853 0
1 854 -855 0
1 854 852 0
1 854 -676 0
1 -854 -851 0
1 856 -702 0
1 856 -721 0
1 856 -718 0
1 709 -552 0
1 855 857 0
1 -855 -858 0
1 855 -721 0
1 -721 859 0
1 699 -855 0
1 699 -709 0
1 -860 861 0
1 -860 -852 0
1 859 862 0
1 859 -709 0
1 859 -721 0
1 -861 -863 0
1 864 863 0
1 -865 866 0
1 865 -857 0
1 865 716 0
1 727 -857 0
1 -867 857 0
1 857 861 0
1 857 730 0
1 -857 -868 0
1 -857 -869 0
1 870 -861 0
1 -870 871 0
1 -726 872 0
1 -726 -867 0
1 726 873 0
1 872 -714 0
1 872 874 0
1 872 -873 0
1 872 722 0
1 869 875 0
1 869 -873 0
1 -869 -876 0
1 -873 877 0
1 873 878 0
1 714 -879 0
1 714 -727 0
1 -714 877 0
1 878 -873 0
1 -880 881 0
1 -880 878 0
1 -880 -882 0
1 -883 884 0
1 -879 -885 0
1 879 886 0
1 -876 -875 0
1 -875 -747 0
1 886 878 0
1 -881 887 0
1 881 -879 0
1 -881 -874 0
1 -881 -880 0
1 881 -888 0
1 881 883 0
1 889 885 0
1 747 737 0
1 747 -875 0
1 747 739 0
1 -747 890 0
1 -891 892 0
1 -891 888 0
1 -891 890 0
1 -893 -875 0
1 -893 -884 0
1 -893 -894 0
1 893 -876 0
1 890 756 0
1 885 -895 0
1 896 879 0
1 896 -897 0
1 884 898 0
1 884 -899 0
1 900 -745 0
1 745 -892 0
1 756 -892 0
1 756 -753 0
1 901 902 0
1 901 -588 0
1 -738 903 0
1 738 894 0
1 -892 904 0
1 -892 905 0
1 892 895 0
1 892 901 0
1 -906 907 0
1 759 908 0
1 759 -565 0
1 -759 -751 0
1 -909 -910 0
1 911 912 0
1 -907 906 0
1 907 901 0
1 913 -764 0
1 -767 748 0
1 -767 758 0
1 914 -915 0
1 916 -903 0
1 -917 918 0
1 -919 -914 0
1 -919 -920 0
1 -919 767 0
1 919 -909 0
1 -915 -921 0
1 -915 914 0
1 915 -922 0
1 766 -762 0
1 923 766 0
1 -923 924 0
1 -925 -772 0
1 918 -926 0
1 -926 927 0
1 -926 -758 0
1 -926 -923 0
1 -928 766 0
1 -928 914 0
1 928 -749 0
1 928 -923 0
1 -928 -929 0
1 930 -931 0
1 930 929 0
1 -778 -932 0
1 778 -933 0
1 934 -935 0
1 934 -932 0
1 936 937 0
1 936 938 0
1 936 -934 0
1 938 939 0
1 938 918 0
1 940 -778 0
1 932 941 0
1 932 942 0
1 -937 941 0
1 937 943 0
1 944 938 0
1 944 929 0
1 -939 935 0
1 939 -618 0
1 -939 777 0
1 -939 944 0
1 -945 -946 0
1 -945 -947 0
1 945 948 0
1 949 -790 0
1 -949 950 0
1 -951 774 0
1 -951 -952 0
1 -935 -953 0
1 -935 -945 0
1 785 -793 0
1 785 946 0
1 -954 775 0
1 -954 -950 0
1 -955 956 0
1 -955 -948 0
1 948 -957 0
1 775 -958 0
1 775 959 0
1 -960 -799 0
1 958 961 0
1 962 -954 0
1 798 -803 0
1 -796 -963 0
1 963 964 0
1 -963 965 0
1 965 -963 0
1 966 967 0
1 966 968 0
1 814 636 0
1 969 970 0
1 969 805 0
1 971 636 0
1 -812 971 0
1 -812 -636 0
1 812 968 0
1 812 970 0
1 -972 973 0
1 -970 795 0
1 974 -807 0
1 -975 976 0
1 -975 964 0
1 975 807 0
1 -977 -972 0
1 -808 -970 0
1 978 -979 0
1 -978 -980 0
1 -981 982 0
1 -981 812 0
1 -983 -971 0
1 -983 -984 0
1 985 -813 0
1 -985 815 0
1 -829 813 0
1 829 -828 0
1 986 -987 0
1 980 -988 0
1 989 978 0
1 -979 -990 0
1 979 987 0
1 -991 992 0
1 -991 844 0
1 -991 846 0
1 993 -846 0
1 994 995 0
1 -996 -858 0
1 -996 993 0
1 -996 997 0
1 -998 -999 0
1 1000 -839 0
1 839 993 0
1 -858 -1001 0
1 858 998 0
1 1001 -994 0
1 1002 -1003 0
1 -1004 -1005 0
1 -862 -1006 0
1 -866 -865 0
1 866 -1007 0
1 1008 -1009 0
1 1010 -1011 0
1 -1010 -871 0
1 -1012 -1013 0
1 1012 -848 0
1 1006 -1014 0
1 -1006 1011 0
1 1006 -1005 0
1 1007 -858 0
1 1007 -1013 0
1 1007 -847 0
1 -1007 1015 0
1 -1016 1012 0
1 1017 1018 0
1 1017 -699 0
1 -1017 1019 0
1 -1017 -1016 0
1 871 1020 0
1 871 -1021 0
1 -1022 1019 0
1 1018 1008 0
1 -1019 868 0
1 -1019 1023 0
1 1021 -1024 0
1 -868 1011 0
1 868 -1025 0
1 1026 868 0
1 1027 879 0
1 -1027 -1028 0
1 -1029 699 0
1 -1029 -1030 0
1 -1029 -1031 0
1 -1029 871 0
1 -1032 -887 0
1 1028 -1025 0
1 1025 1033 0
1 877 1034 0
1 -877 -714 0
1 1034 -1029 0
1 1034 1035 0
1 1034 1036 0
1 -888 -891 0
1 -887 -1037 0
1 1038 898 0
1 1038 1034 0
1 -1035 -1039 0
1 -1040 877 0
1 -1040 -870 0
1 -1041 875 0
1 1041 -1042 0
1 -1041 886 0
1 -898 -1043 0
1 898 -745 0
1 -1044 1045 0
1 -1044 1046 0
1 1047 901 0
1 1037 1048 0
1 1037 -1041 0
1 1049 888 0
1 -1043 -1047 0
1 -895 -906 0
1 895 885 0
1 -895 -899 0
1 -899 -759 0
1 899 -1050 0
1 1051 -1052 0
1 1051 -1053 0
1 -910 -1051 0
1 -1046 1054 0
1 1046 899 0
1 -1046 -1055 0
1 -1056 1044 0
1 -1045 -1048 0
1 1052 -895 0
1 -905 1057 0
1 1054 1058 0
1 -1054 -1059 0
1 -1060 -907 0
1 1061 -1062 0
1 -1061 -908 0
1 1057 -1061 0
1 1057 890 0
1 1063 905 0
1 897 -1064 0
1 897 1065 0
1 897 -1054 0
1 1058 -884 0
1 -1066 -1062 0
1 924 923 0
1 924 -915 0
1 921 904 0
1 921 -1067 0
1 -1068 1069 0
1 -1068 -915 0
1 -1062 1070 0
1 904 1071 0
1 904 -921 0
1 904 1061 0
1 -1072 -1073 0
1 -1072 1074 0
1 -1072 -1061 0
1 1072 1075 0
1 931 -1076 0
1 -1077 -916 0
1 -1077 1069 0
1 1078 -1067 0
1 1079 -1078 0
1 -1079 930 0
1 -1080 -927 0
1 1076 -931 0
1 -1076 911 0
1 -1081 -1070 0
1 -1069 -1070 0
1 -929 -930 0
1 -927 -928 0
1 943 1082 0
1 1083 -1084 0
1 1083 -1078 0
1 1084 917 0
1 -922 1085 0
1 922 -941 0
1 922 1086 0
1 1087 937 0
1 1087 -785 0
1 -1088 1089 0
1 1088 -1090 0
1 1088 1083 0
1 1088 1084 0
1 1090 -1083 0
1 1090 1091 0
1 1089 928 0
1 1092 -1090 0
1 1092 943 0
1 1093 1094 0
1 1095 -1096 0
1 -1097 -946 0
1 1097 -942 0
1 -1097 1098 0
1 -1097 -1099 0
1 1100 -1096 0
1 1100 1098 0
1 1100 -1099 0
1 -1091 -1095 0
1 -1091 -938 0
1 942 -1101 0
1 1101 -1097 0
1 -1102 1098 0
1 1102 1099 0
1 -1103 -962 0
1 -1103 -1104 0
1 952 1105 0
1 1098 1106 0
1 1107 935 0
1 -1108 1109 0
1 968 -952 0
1 -1104 959 0
1 -1110 1111 0
1 -964 975 0
1 -976 1112 0
1 -1113 -1114 0
1 1113 -1115 0
1 -1113 -1116 0
1 1117 1118 0
1 1117 -967 0
1 1117 -976 0
1 1119 -1114 0
1 -1116 -974 0
1 -1116 -1120 0
1 1121 1118 0
1 -1121 1120 0
1 -1115 -1120 0
1 1122 -976 0
1 -1120 -1121 0
1 -1123 1017 0
1 1124 -1014 0
1 -1124 -1125 0
1 1014 1126 0
1 1014 -1022 0
1 997 1127 0
1 -1128 1013 0
1 1129 1014 0
1 -1129 -1123 0
1 -1129 1005 0
1 1125 -1014 0
1 -1011 1130 0
1 -1131 -1003 0
1 -1131 -1132 0
1 -1131 997 0
1 1133 -1024 0
1 -1133 1014 0
1 1003 1134 0
1 1126 -1135 0
1 1126 1136 0
1 -1130 1136 0
1 1137 -1133 0
1 1137 1020 0
1 -1024 -1138 0
1 -1024 1139 0
1 1024 -1028 0
1 -1024 -1137 0
1 -1140 -1003 0
1 -1141 -1142 0
1 -1139 -1143 0
1 -1139 1134 0
1 1132 1143 0
1 1132 1144 0
1 1138 -1145 0
1 1138 1137 0
1 -1015 1146 0
1 1015 1136 0
1 1015 1147 0
1 1015 1144 0
1 -1042 1136 0
1 1042 -1148 0
1 1042 1025 0
1 -1149 1028 0
1 -1039 1150 0
1 1150 -1039 0
1 1150 1033 0
1 1142 -1151 0
1 -1142 1018 0
1 -1142 1023 0
1 -1023 1019 0
1 -1152 -1153 0
1 1154 1030 0
1 1050 1033 0
1 1053 -1142 0
1 -1030 -1155 0
1 1156 1050 0
1 -1157 -1155 0
1 -1033 1157 0
1 -1048 -1158 0
1 -1048 1151 0
1 -1048 1043 0
1 -1159 -1160 0
1 1159 1161 0
1 -1159 1162 0
1 1163 1164 0
1 -1163 -1165 0
1 -1163 -1160 0
1 1163 -1166 0
1 1167 -1168 0
1 -1167 -1155 0
1 -1164 1163 0
1 -1162 -1169 0
1 1170 1171 0
1 -1170 -1160 0
1 -1170 -1161 0
1 -1170 1045 0
1 -1170 1046 0
1 -1172 -1045 0
1 -1064 -1173 0
1 1064 1174 0
1 1065 1160 0
1 1175 -1071 0
1 -1160 1176 0
1 1160 1074 0
1 1160 -1175 0
1 -1161 1170 0
1 -1161 1165 0
1 1161 1065 0
1 1165 -1177 0
1 1165 1161 0
1 1165 -1163 0
1 1165 -1178 0
1 1071 1074 0
1 -1071 -897 0
1 -1074 1071 0
1 1074 1179 0
1 -1075 1072 0
1 -1075 -1179 0
1 1073 -1180 0
1 -1055 1071 0
1 -1055 1181 0
1 -1174 1071 0
1 1174 1064 0
1 -1179 1064 0
1 1180 -1179 0
1 -1182 -1174 0
1 -1182 1069 0
1 -1082 -1183 0
1 1184 1182 0
1 -1184 1075 0
1 1185 -1186 0
1 -1187 -1188 0
1 1187 1181 0
1 1187 1189 0
1 -1190 1181 0
1 1190 -1191 0
1 -1192 -922 0
1 -1085 1184 0
1 1085 -1193 0
1 1194 -1195 0
1 -1196 1184 0
1 -1197 1198 0
1 -1197 -1199 0
1 1197 -1181 0
1 1183 1072 0
1 1094 1200 0
1 -1201 -1202 0
1 1203 -1097 0
1 -1203 1204 0
1 1198 -1195 0
1 1205 1201 0
1 1200 -1205 0
1 -1200 -1094 0
1 1200 1206 0
1 1195 -1207 0
1 1195 -1194 0
1 1195 -1208 0
1 -1209 -1210 0
1 -1209 1211 0
1 -1209 1200 0
1 -1209 -1086 0
1 1212 -1207 0
1 -1212 -1209 0
1 -1213 942 0
1 1214 -1204 0
1 -1210 1209 0
1 -1210 -1203 0
1 1210 1212 0
1 1204 -1106 0
1 -1204 -1213 0
1 1204 1209 0
1 1215 -1213 0
1 -1086 -1203 0
1 -1216 1217 0
1 -1216 1218 0
1 1216 942 0
1 1106 1210 0
1 -1106 -1204 0
1 1219 1220 0
1 -1218 -1214 0
1 -1217 -1106 0
1 1217 -1216 0
1 1221 1106 0
1 -1222 1223 0
1 -1222 1098 0
1 -1222 1109 0
1 -1224 1225 0
1 -1226 -1227 0
1 1226 1110 0
1 -1112 1225 0
1 -1112 1110 0
1 -1112 1218 0
1 1228 1112 0
1 -1228 -1224 0
1 -1229 1230 0
1 -1229 -1231 0
1 -1111 1228 0
1 -1118 1121 0
1 1118 -1232 0
1 -1230 -1229 0
1 -1233 -1015 0
1 1145 -1234 0
1 1146 -1235 0
1 1146 1236 0
1 1127 -1237 0
1 -1238 -1143 0
1 -1144 -1148 0
1 1239 -1053 0
1 1239 1147 0
1 -1240 1127 0
1 -1234 -1241 0
1 -1234 1240 0
1 1235 1144 0
1 1151 1235 0
1 1151 -1147 0
1 -1151 -1242 0
1 1151 1023 0
1 -1243 -1023 0
1 1241 1234 0
1 -1241 1244 0
1 1245 1241 0
1 -1246 -1247 0
1 -1246 1248 0
1 1246 -1243 0
1 1147 -1241 0
1 -1147 -1247 0
1 -1147 -1249 0
1 -1250 1169 0
1 -1250 -1251 0
1 1244 -1142 0
1 1244 1252 0
1 -1244 -1253 0
1 1251 1168 0
1 1251 1254 0
1 -1153 -1255 0
1 1153 -1256 0
1 -1256 -1255 0
1 1256 -1253 0
1 -1168 1161 0
1 -1168 -1257 0
1 1258 -1259 0
1 1258 -1251 0
1 1260 -1261 0
1 1260 -1257 0
1 1252 1262 0
1 -1252 1263 0
1 -1259 1260 0
1 1264 1260 0
1 1264 1265 0
1 1264 1266 0
1 1264 1258 0
1 -1262 1267 0
1 -1257 1173 0
1 -1257 1033 0
1 1178 1264 0
1 -1178 1161 0
1 1177 -1175 0
1 1268 1269 0
1 -1270 -1164 0
1 1270 -1268 0
1 1271 1266 0
1 1261 1272 0
1 1193 -1055 0
1 -1273 -1274 0
1 -1273 1191 0
1 -1273 -1187 0
1 -1269 -1186 0
1 1269 1273 0
1 1275 1276 0
1 -1277 -1094 0
1 -1278 -1176 0
1 1278 -1269 0
1 1279 -1280 0
1 1279 -1179 0
1 -1280 1186 0
1 -1280 -1277 0
1 -1281 1282 0
1 1283 1282 0
1 -1283 -1284 0
1 1285 -1286 0
1 1285 1287 0
1 1285 -1288 0
1 1285 1289 0
1 1285 -1283 0
1 -1188 1287 0
1 -1188 1187 0
1 1282 1287 0
1 -1282 -1190 0
1 1282 1290 0
1 1208 1205 0
1 1208 -1285 0
1 1208 1291 0
1 -1208 1292 0
1 1293 1294 0
1 1293 1295 0
1 -1293 -1206 0
1 -1296 1285 0
1 1296 -1297 0
1 -1296 -1219 0
1 -1297 1298 0
1 -1223 -1222 0
1 1223 -1215 0
1 -1223 1221 0
1 1299 1300 0
1 1299 -1289 0
1 -1301 -1302 0
1 -1303 1206 0
1 1206 -1302 0
1 -1304 1296 0
1 -1305 -1306 0
1 -1307 1308 0
1 -1307 1206 0
1 -1309 -1232 0
1 1306 -1301 0
1 -1308 -1302 0
1 -1308 1215 0
1 -1310 -1308 0
1 -1311 1312 0
1 1311 1235 0
1 1313 1173 0
1 1313 1314 0
1 -1248 -1315 0
1 1248 -1316 0
1 1317 1237 0
1 1317 1318 0
1 -1317 1256 0
1 -1319 1255 0
1 1319 -1320 0
1 -1255 1321 0
1 -1255 1322 0
1 1255 1323 0
1 1324 -1325 0
1 1324 1326 0
1 -1324 1254 0
1 1324 -1327 0
1 -1316 -1317 0
1 -1316 -1313 0
1 -1316 1326 0
1 -1316 -1247 0
1 -1318 1317 0
1 1314 -1327 0
1 -1328 -1251 0
1 -1328 -1257 0
1 1326 -1329 0
1 1322 -1254 0
1 -1323 -1330 0
1 -1323 -1329 0
1 1321 -1331 0
1 1321 1326 0
1 -1320 1332 0
1 -1320 1327 0
1 1267 1333 0
1 1267 1271 0
1 1266 -1193 0
1 1266 -1333 0
1 1330 1334 0
1 1333 -1335 0
1 -1333 1267 0
1 1336 1266 0
1 -1336 1330 0
1 1336 1251 0
1 1337 -1266 0
1 -1338 -1339 0
1 -1339 -1334 0
1 -1339 1340 0
1 1341 -1265 0
1 -1341 -1272 0
1 1341 -1336 0
1 -1334 -1265 0
1 1265 1339 0
1 1342 1176 0
1 -1342 -1340 0
1 -1342 1269 0
1 1342 -1279 0
1 1343 -1280 0
1 1344 1345 0
1 -1344 -1346 0
1 -1347 1348 0
1 -1346 -1349 0
1 1346 1290 0
1 1348 1347 0
1 1350 -1351 0
1 -1272 -1343 0
1 1352 1348 0
1 1352 1353 0
1 1292 -1284 0
1 1295 1188 0
1 1295 1354 0
1 1295 -1282 0
1 1290 1348 0
1 1290 1276 0
1 1355 -1290 0
1 1345 -1289 0
1 -1345 -1292 0
1 -1276 -1356 0
1 1289 -1357 0
1 1289 1358 0
1 1359 -1360 0
1 -1358 1354 0
1 1358 -1290 0
1 1354 -1361 0
1 -1354 1362 0
1 1363 1287 0
1 -1361 1305 0
1 1361 -1358 0
1 1364 1365 0
1 -1366 1361 0
1 1366 -1367 0
1 -1368 1364 0
1 -1369 1362 0
1 1327 1370 0
1 -1371 -1370 0
1 -1331 1321 0
1 -1331 -1370 0
1 -1372 1371 0
1 -1373 1374 0
1 -1375 -1338 0
1 -1376 -1375 0
1 -1377 -1341 0
1 1377 -1378 0
1 1377 1379 0
1 -1325 1324 0
1 1380 1381 0
1 -1380 -1371 0
1 1382 -1371 0
1 1335 -1378 0
1 1381 1383 0
1 -1384 -1385 0
1 -1384 -1386 0
1 -1384 -1387 0
1 1388 -1389 0
1 1390 -1351 0
1 1378 -1381 0
1 1332 1381 0
1 1332 -1378 0
1 -1332 1391 0
1 1392 -1272 0
1 -1393 -1385 0
1 -1394 1395 0
1 -1351 -1395 0
1 -1351 1394 0
1 -1351 -1396 0
1 -1351 1397 0
1 1351 1389 0
1 1351 -1386 0
1 -1385 -1388 0
1 1385 1398 0
1 1385 -1333 0
1 1385 -1351 0
1 -1387 -1398 0
1 1396 1399 0
1 1389 -1400 0
1 1389 1351 0
1 -1389 -1393 0
1 1398 1348 0
1 1401 -1402 0
1 -1360 -1403 0
1 -1403 1356 0
1 1404 -1394 0
1 -1405 1345 0
1 -1365 -1363 0
1 1406 -1365 0
1 -1406 -1407 0
1 1408 -1272 0
1 1408 -1365 0
1 -1408 -1409 0
1 1410 1411 0
1 -1410 1379 0
1 -1412 -1382 0
1 -1413 -1332 0
1 -1414 -1415 0
1 -1414 -1399 0
1 -1374 -1411 0
1 -1374 -1373 0
1 1416 -1398 0
1 -1399 1417 0
1 1418 1419 0
1 1418 1416 0
1 1417 1420 0
1 -1421 1422 0
1 1423 1405 0
1 -1419 1424 0
1 -1425 -1400 0
1 1425 -1423 0
1 -1424 -1400 0
1 1424 -1420 0
